p cnf 652 1755
-2 4 51 0
2 4 -51 0
-2 -4 -51 0
2 -4 51 0
-5 -6 52 0
5 -6 -52 0
-5 6 -52 0
5 6 52 0
-9 -10 53 0
9 -10 -53 0
-9 10 -53 0
9 10 53 0
-13 -14 54 0
13 -14 -54 0
-13 14 -54 0
13 14 54 0
15 17 55 0
-15 17 -55 0
15 -17 -55 0
-15 -17 55 0
-20 -23 56 0
20 -23 -56 0
-20 23 -56 0
20 23 56 0
24 26 57 0
-24 26 -57 0
24 -26 -57 0
-24 -26 57 0
28 -29 58 0
-28 -29 -58 0
28 29 -58 0
-28 29 58 0
31 32 59 0
-31 32 -59 0
31 -32 -59 0
-31 -32 59 0
33 37 60 0
-33 37 -60 0
33 -37 -60 0
-33 -37 60 0
-38 -39 61 0
38 -39 -61 0
-38 39 -61 0
38 39 61 0
40 43 62 0
-40 43 -62 0
40 -43 -62 0
-40 -43 62 0
-44 47 63 0
44 47 -63 0
-44 -47 -63 0
44 -47 63 0
50 -51 64 0
-50 -51 -64 0
50 51 -64 0
-50 51 64 0
52 -53 65 0
-52 -53 -65 0
52 53 -65 0
-52 53 65 0
54 -55 66 0
-54 -55 -66 0
54 55 -66 0
-54 55 66 0
56 -57 67 0
-56 -57 -67 0
56 57 -67 0
-56 57 67 0
58 -59 68 0
-58 -59 -68 0
58 59 -68 0
-58 59 68 0
60 -61 69 0
-60 -61 -69 0
60 61 -69 0
-60 61 69 0
62 -63 70 0
-62 -63 -70 0
62 63 -70 0
-62 63 70 0
64 -65 71 0
-64 -65 -71 0
64 65 -71 0
-64 65 71 0
66 -67 72 0
-66 -67 -72 0
66 67 -72 0
-66 67 72 0
68 -69 73 0
-68 -69 -73 0
68 69 -73 0
-68 69 73 0
70 -71 74 0
-70 -71 -74 0
70 71 -74 0
-70 71 74 0
72 -73 75 0
-72 -73 -75 0
72 73 -75 0
-72 73 75 0
74 75 0
-74 -75 0
1 -3 76 0
-1 -3 -76 0
1 3 -76 0
-1 3 76 0
-6 10 77 0
6 10 -77 0
-6 -10 -77 0
6 -10 77 0
16 17 78 0
-16 17 -78 0
16 -17 -78 0
-16 -17 78 0
18 23 79 0
-18 23 -79 0
18 -23 -79 0
-18 -23 79 0
-25 -28 80 0
25 -28 -80 0
-25 28 -80 0
25 28 80 0
-29 -31 81 0
29 -31 -81 0
-29 31 -81 0
29 31 81 0
-32 37 82 0
32 37 -82 0
-32 -37 -82 0
32 -37 82 0
38 40 83 0
-38 40 -83 0
38 -40 -83 0
-38 -40 83 0
43 45 84 0
-43 45 -84 0
43 -45 -84 0
-43 -45 84 0
46 -48 85 0
-46 -48 -85 0
46 48 -85 0
-46 48 85 0
76 -77 86 0
-76 -77 -86 0
76 77 -86 0
-76 77 86 0
78 -79 87 0
-78 -79 -87 0
78 79 -87 0
-78 79 87 0
80 -81 88 0
-80 -81 -88 0
80 81 -88 0
-80 81 88 0
82 -83 89 0
-82 -83 -89 0
82 83 -89 0
-82 83 89 0
84 -85 90 0
-84 -85 -90 0
84 85 -90 0
-84 85 90 0
86 -87 91 0
-86 -87 -91 0
86 87 -91 0
-86 87 91 0
88 -89 92 0
-88 -89 -92 0
88 89 -92 0
-88 89 92 0
-90 -91 92 0
90 -91 -92 0
-90 91 -92 0
90 91 92 0
2 -4 93 0
-2 -4 -93 0
2 4 -93 0
-2 4 93 0
5 7 94 0
-5 7 -94 0
5 -7 -94 0
-5 -7 94 0
-8 9 95 0
8 9 -95 0
-8 -9 -95 0
8 -9 95 0
12 -16 96 0
-12 -16 -96 0
12 16 -96 0
-12 16 96 0
-18 20 97 0
18 20 -97 0
-18 -20 -97 0
18 -20 97 0
23 -26 98 0
-23 -26 -98 0
23 26 -98 0
-23 26 98 0
-27 28 99 0
27 28 -99 0
-27 -28 -99 0
27 -28 99 0
-29 -30 100 0
29 -30 -100 0
-29 30 -100 0
29 30 100 0
-32 33 101 0
32 33 -101 0
-32 -33 -101 0
32 -33 101 0
-34 -35 102 0
34 -35 -102 0
-34 35 -102 0
34 35 102 0
36 -37 103 0
-36 -37 -103 0
36 37 -103 0
-36 37 103 0
-39 41 104 0
39 41 -104 0
-39 -41 -104 0
39 -41 104 0
44 48 105 0
-44 48 -105 0
44 -48 -105 0
-44 -48 105 0
49 -50 106 0
-49 -50 -106 0
49 50 -106 0
-49 50 106 0
93 -94 107 0
-93 -94 -107 0
93 94 -107 0
-93 94 107 0
95 -96 108 0
-95 -96 -108 0
95 96 -108 0
-95 96 108 0
97 -98 109 0
-97 -98 -109 0
97 98 -109 0
-97 98 109 0
99 -100 110 0
-99 -100 -110 0
99 100 -110 0
-99 100 110 0
101 -102 111 0
-101 -102 -111 0
101 102 -111 0
-101 102 111 0
103 -104 112 0
-103 -104 -112 0
103 104 -112 0
-103 104 112 0
105 -106 113 0
-105 -106 -113 0
105 106 -113 0
-105 106 113 0
107 -108 114 0
-107 -108 -114 0
107 108 -114 0
-107 108 114 0
109 -110 115 0
-109 -110 -115 0
109 110 -115 0
-109 110 115 0
111 -112 116 0
-111 -112 -116 0
111 112 -116 0
-111 112 116 0
113 -114 117 0
-113 -114 -117 0
113 114 -117 0
-113 114 117 0
115 -116 118 0
-115 -116 -118 0
115 116 -118 0
-115 116 118 0
117 118 0
-117 -118 0
1 -2 119 0
-1 -2 -119 0
1 2 -119 0
-1 2 119 0
3 -5 120 0
-3 -5 -120 0
3 5 -120 0
-3 5 120 0
-6 -8 121 0
6 -8 -121 0
-6 8 -121 0
6 8 121 0
-9 10 122 0
9 10 -122 0
-9 -10 -122 0
9 -10 122 0
11 -14 123 0
-11 -14 -123 0
11 14 -123 0
-11 14 123 0
-15 17 124 0
15 17 -124 0
-15 -17 -124 0
15 -17 124 0
18 -20 125 0
-18 -20 -125 0
18 20 -125 0
-18 20 125 0
21 -24 126 0
-21 -24 -126 0
21 24 -126 0
-21 24 126 0
25 -28 127 0
-25 -28 -127 0
25 28 -127 0
-25 28 127 0
-31 35 128 0
31 35 -128 0
-31 -35 -128 0
31 -35 128 0
36 -37 129 0
-36 -37 -129 0
36 37 -129 0
-36 37 129 0
38 -39 130 0
-38 -39 -130 0
38 39 -130 0
-38 39 130 0
-41 42 131 0
41 42 -131 0
-41 -42 -131 0
41 -42 131 0
43 -45 132 0
-43 -45 -132 0
43 45 -132 0
-43 45 132 0
118 -119 133 0
-118 -119 -133 0
118 119 -133 0
-118 119 133 0
120 -121 134 0
-120 -121 -134 0
120 121 -134 0
-120 121 134 0
122 -123 135 0
-122 -123 -135 0
122 123 -135 0
-122 123 135 0
124 -125 136 0
-124 -125 -136 0
124 125 -136 0
-124 125 136 0
126 -127 137 0
-126 -127 -137 0
126 127 -137 0
-126 127 137 0
128 -129 138 0
-128 -129 -138 0
128 129 -138 0
-128 129 138 0
130 -131 139 0
-130 -131 -139 0
130 131 -139 0
-130 131 139 0
132 -133 140 0
-132 -133 -140 0
132 133 -140 0
-132 133 140 0
134 -135 141 0
-134 -135 -141 0
134 135 -141 0
-134 135 141 0
136 -137 142 0
-136 -137 -142 0
136 137 -142 0
-136 137 142 0
138 -139 143 0
-138 -139 -143 0
138 139 -143 0
-138 139 143 0
140 -141 144 0
-140 -141 -144 0
140 141 -144 0
-140 141 144 0
142 -143 145 0
-142 -143 -145 0
142 143 -145 0
-142 143 145 0
144 145 0
-144 -145 0
2 4 146 0
-2 4 -146 0
2 -4 -146 0
-2 -4 146 0
-8 11 147 0
8 11 -147 0
-8 -11 -147 0
8 -11 147 0
-13 16 148 0
13 16 -148 0
-13 -16 -148 0
13 -16 148 0
19 20 149 0
-19 20 -149 0
19 -20 -149 0
-19 -20 149 0
21 24 150 0
-21 24 -150 0
21 -24 -150 0
-21 -24 150 0
27 -30 151 0
-27 -30 -151 0
27 30 -151 0
-27 30 151 0
32 36 152 0
-32 36 -152 0
32 -36 -152 0
-32 -36 152 0
37 -39 153 0
-37 -39 -153 0
37 39 -153 0
-37 39 153 0
40 -44 154 0
-40 -44 -154 0
40 44 -154 0
-40 44 154 0
-45 -48 155 0
45 -48 -155 0
-45 48 -155 0
45 48 155 0
145 -146 156 0
-145 -146 -156 0
145 146 -156 0
-145 146 156 0
147 -148 157 0
-147 -148 -157 0
147 148 -157 0
-147 148 157 0
149 -150 158 0
-149 -150 -158 0
149 150 -158 0
-149 150 158 0
151 -152 159 0
-151 -152 -159 0
151 152 -159 0
-151 152 159 0
153 -154 160 0
-153 -154 -160 0
153 154 -160 0
-153 154 160 0
155 -156 161 0
-155 -156 -161 0
155 156 -161 0
-155 156 161 0
157 -158 162 0
-157 -158 -162 0
157 158 -162 0
-157 158 162 0
159 -160 163 0
-159 -160 -163 0
159 160 -163 0
-159 160 163 0
-161 -162 163 0
161 -162 -163 0
-161 162 -163 0
161 162 163 0
3 4 164 0
-3 4 -164 0
3 -4 -164 0
-3 -4 164 0
5 -8 165 0
-5 -8 -165 0
5 8 -165 0
-5 8 165 0
9 -10 166 0
-9 -10 -166 0
9 10 -166 0
-9 10 166 0
-12 -13 167 0
12 -13 -167 0
-12 13 -167 0
12 13 167 0
15 -16 168 0
-15 -16 -168 0
15 16 -168 0
-15 16 168 0
-18 -23 169 0
18 -23 -169 0
-18 23 -169 0
18 23 169 0
-24 -29 170 0
24 -29 -170 0
-24 29 -170 0
24 29 170 0
31 33 171 0
-31 33 -171 0
31 -33 -171 0
-31 -33 171 0
-36 40 172 0
36 40 -172 0
-36 -40 -172 0
36 -40 172 0
41 -42 173 0
-41 -42 -173 0
41 42 -173 0
-41 42 173 0
-43 -45 174 0
43 -45 -174 0
-43 45 -174 0
43 45 174 0
48 -49 175 0
-48 -49 -175 0
48 49 -175 0
-48 49 175 0
164 -165 176 0
-164 -165 -176 0
164 165 -176 0
-164 165 176 0
166 -167 177 0
-166 -167 -177 0
166 167 -177 0
-166 167 177 0
168 -169 178 0
-168 -169 -178 0
168 169 -178 0
-168 169 178 0
170 -171 179 0
-170 -171 -179 0
170 171 -179 0
-170 171 179 0
172 -173 180 0
-172 -173 -180 0
172 173 -180 0
-172 173 180 0
174 -175 181 0
-174 -175 -181 0
174 175 -181 0
-174 175 181 0
176 -177 182 0
-176 -177 -182 0
176 177 -182 0
-176 177 182 0
178 -179 183 0
-178 -179 -183 0
178 179 -183 0
-178 179 183 0
180 -181 184 0
-180 -181 -184 0
180 181 -184 0
-180 181 184 0
-182 -183 184 0
182 -183 -184 0
-182 183 -184 0
182 183 184 0
-1 -4 185 0
1 -4 -185 0
-1 4 -185 0
1 4 185 0
5 7 186 0
-5 7 -186 0
5 -7 -186 0
-5 -7 186 0
-8 11 187 0
8 11 -187 0
-8 -11 -187 0
8 -11 187 0
-12 -13 188 0
12 -13 -188 0
-12 13 -188 0
12 13 188 0
14 -15 189 0
-14 -15 -189 0
14 15 -189 0
-14 15 189 0
-16 -17 190 0
16 -17 -190 0
-16 17 -190 0
16 17 190 0
-18 -19 191 0
18 -19 -191 0
-18 19 -191 0
18 19 191 0
-21 23 192 0
21 23 -192 0
-21 -23 -192 0
21 -23 192 0
-24 25 193 0
24 25 -193 0
-24 -25 -193 0
24 -25 193 0
-26 -28 194 0
26 -28 -194 0
-26 28 -194 0
26 28 194 0
-29 -30 195 0
29 -30 -195 0
-29 30 -195 0
29 30 195 0
-32 -33 196 0
32 -33 -196 0
-32 33 -196 0
32 33 196 0
36 41 197 0
-36 41 -197 0
36 -41 -197 0
-36 -41 197 0
42 44 198 0
-42 44 -198 0
42 -44 -198 0
-42 -44 198 0
45 -49 199 0
-45 -49 -199 0
45 49 -199 0
-45 49 199 0
185 -186 200 0
-185 -186 -200 0
185 186 -200 0
-185 186 200 0
187 -188 201 0
-187 -188 -201 0
187 188 -201 0
-187 188 201 0
189 -190 202 0
-189 -190 -202 0
189 190 -202 0
-189 190 202 0
191 -192 203 0
-191 -192 -203 0
191 192 -203 0
-191 192 203 0
193 -194 204 0
-193 -194 -204 0
193 194 -204 0
-193 194 204 0
195 -196 205 0
-195 -196 -205 0
195 196 -205 0
-195 196 205 0
197 -198 206 0
-197 -198 -206 0
197 198 -206 0
-197 198 206 0
199 -200 207 0
-199 -200 -207 0
199 200 -207 0
-199 200 207 0
201 -202 208 0
-201 -202 -208 0
201 202 -208 0
-201 202 208 0
203 -204 209 0
-203 -204 -209 0
203 204 -209 0
-203 204 209 0
205 -206 210 0
-205 -206 -210 0
205 206 -210 0
-205 206 210 0
207 -208 211 0
-207 -208 -211 0
207 208 -211 0
-207 208 211 0
209 -210 212 0
-209 -210 -212 0
209 210 -212 0
-209 210 212 0
211 212 0
-211 -212 0
3 6 213 0
-3 6 -213 0
3 -6 -213 0
-3 -6 213 0
8 9 214 0
-8 9 -214 0
8 -9 -214 0
-8 -9 214 0
-10 11 215 0
10 11 -215 0
-10 -11 -215 0
10 -11 215 0
13 -15 216 0
-13 -15 -216 0
13 15 -216 0
-13 15 216 0
16 17 217 0
-16 17 -217 0
16 -17 -217 0
-16 -17 217 0
-18 -20 218 0
18 -20 -218 0
-18 20 -218 0
18 20 218 0
26 -28 219 0
-26 -28 -219 0
26 28 -219 0
-26 28 219 0
33 34 220 0
-33 34 -220 0
33 -34 -220 0
-33 -34 220 0
-35 -37 221 0
35 -37 -221 0
-35 37 -221 0
35 37 221 0
-39 40 222 0
39 40 -222 0
-39 -40 -222 0
39 -40 222 0
-44 46 223 0
44 46 -223 0
-44 -46 -223 0
44 -46 223 0
213 -214 224 0
-213 -214 -224 0
213 214 -224 0
-213 214 224 0
215 -216 225 0
-215 -216 -225 0
215 216 -225 0
-215 216 225 0
217 -218 226 0
-217 -218 -226 0
217 218 -226 0
-217 218 226 0
219 -220 227 0
-219 -220 -227 0
219 220 -227 0
-219 220 227 0
221 -222 228 0
-221 -222 -228 0
221 222 -228 0
-221 222 228 0
223 -224 229 0
-223 -224 -229 0
223 224 -229 0
-223 224 229 0
225 -226 230 0
-225 -226 -230 0
225 226 -230 0
-225 226 230 0
227 -228 231 0
-227 -228 -231 0
227 228 -231 0
-227 228 231 0
-229 -230 231 0
229 -230 -231 0
-229 230 -231 0
229 230 231 0
3 4 232 0
-3 4 -232 0
3 -4 -232 0
-3 -4 232 0
-7 9 233 0
7 9 -233 0
-7 -9 -233 0
7 -9 233 0
10 -12 234 0
-10 -12 -234 0
10 12 -234 0
-10 12 234 0
-15 16 235 0
15 16 -235 0
-15 -16 -235 0
15 -16 235 0
-18 -24 236 0
18 -24 -236 0
-18 24 -236 0
18 24 236 0
-36 -37 237 0
36 -37 -237 0
-36 37 -237 0
36 37 237 0
-39 40 238 0
39 40 -238 0
-39 -40 -238 0
39 -40 238 0
-44 45 239 0
44 45 -239 0
-44 -45 -239 0
44 -45 239 0
-46 -49 240 0
46 -49 -240 0
-46 49 -240 0
46 49 240 0
231 -232 241 0
-231 -232 -241 0
231 232 -241 0
-231 232 241 0
233 -234 242 0
-233 -234 -242 0
233 234 -242 0
-233 234 242 0
235 -236 243 0
-235 -236 -243 0
235 236 -243 0
-235 236 243 0
237 -238 244 0
-237 -238 -244 0
237 238 -244 0
-237 238 244 0
239 -240 245 0
-239 -240 -245 0
239 240 -245 0
-239 240 245 0
241 -242 246 0
-241 -242 -246 0
241 242 -246 0
-241 242 246 0
243 -244 247 0
-243 -244 -247 0
243 244 -247 0
-243 244 247 0
-245 -246 247 0
245 -246 -247 0
-245 246 -247 0
245 246 247 0
1 2 248 0
-1 2 -248 0
1 -2 -248 0
-1 -2 248 0
5 -6 249 0
-5 -6 -249 0
5 6 -249 0
-5 6 249 0
7 10 250 0
-7 10 -250 0
7 -10 -250 0
-7 -10 250 0
13 14 251 0
-13 14 -251 0
13 -14 -251 0
-13 -14 251 0
-17 -21 252 0
17 -21 -252 0
-17 21 -252 0
17 21 252 0
26 28 253 0
-26 28 -253 0
26 -28 -253 0
-26 -28 253 0
-31 32 254 0
31 32 -254 0
-31 -32 -254 0
31 -32 254 0
34 -35 255 0
-34 -35 -255 0
34 35 -255 0
-34 35 255 0
36 -38 256 0
-36 -38 -256 0
36 38 -256 0
-36 38 256 0
39 40 257 0
-39 40 -257 0
39 -40 -257 0
-39 -40 257 0
-41 -43 258 0
41 -43 -258 0
-41 43 -258 0
41 43 258 0
-44 -46 259 0
44 -46 -259 0
-44 46 -259 0
44 46 259 0
47 48 260 0
-47 48 -260 0
47 -48 -260 0
-47 -48 260 0
247 -248 261 0
-247 -248 -261 0
247 248 -261 0
-247 248 261 0
249 -250 262 0
-249 -250 -262 0
249 250 -262 0
-249 250 262 0
251 -252 263 0
-251 -252 -263 0
251 252 -263 0
-251 252 263 0
253 -254 264 0
-253 -254 -264 0
253 254 -264 0
-253 254 264 0
255 -256 265 0
-255 -256 -265 0
255 256 -265 0
-255 256 265 0
257 -258 266 0
-257 -258 -266 0
257 258 -266 0
-257 258 266 0
259 -260 267 0
-259 -260 -267 0
259 260 -267 0
-259 260 267 0
261 -262 268 0
-261 -262 -268 0
261 262 -268 0
-261 262 268 0
263 -264 269 0
-263 -264 -269 0
263 264 -269 0
-263 264 269 0
265 -266 270 0
-265 -266 -270 0
265 266 -270 0
-265 266 270 0
267 -268 271 0
-267 -268 -271 0
267 268 -271 0
-267 268 271 0
269 -270 272 0
-269 -270 -272 0
269 270 -272 0
-269 270 272 0
271 272 0
-271 -272 0
-12 273 0
-24 273 0
-12 -24 274 0
-23 273 0
-12 -23 274 0
-24 -23 274 0
-12 -24 -23 275 0
-22 276 0
-21 276 0
-22 -21 277 0
-20 276 0
-22 -20 277 0
-21 -20 277 0
-22 -21 -20 278 0
-273 279 0
-274 280 0
-275 281 0
-276 279 0
-277 280 0
-278 281 0
-273 -276 280 0
-273 -277 281 0
-273 -278 282 0
-274 -276 281 0
-274 -277 282 0
-274 -278 283 0
-275 -276 282 0
-275 -277 283 0
-275 -278 284 0
-19 285 0
-18 285 0
-19 -18 286 0
-17 285 0
-19 -17 286 0
-18 -17 286 0
-19 -18 -17 287 0
-16 288 0
-15 288 0
-16 -15 289 0
-14 288 0
-16 -14 289 0
-15 -14 289 0
-16 -15 -14 290 0
-285 291 0
-286 292 0
-287 293 0
-288 291 0
-289 292 0
-290 293 0
-285 -288 292 0
-285 -289 293 0
-285 -290 294 0
-286 -288 293 0
-286 -289 294 0
-286 -290 295 0
-287 -288 294 0
-287 -289 295 0
-287 -290 296 0
-279 297 0
-281 298 0
-283 299 0
-291 297 0
-293 298 0
-295 299 0
-279 -291 298 0
-279 -293 299 0
-279 -295 300 0
-281 -291 299 0
-281 -293 300 0
-281 -295 301 0
-283 -291 300 0
-283 -293 301 0
-283 -295 302 0
-280 303 0
-282 304 0
-284 305 0
-292 303 0
-294 304 0
-296 305 0
-280 -292 304 0
-280 -294 305 0
-280 -296 306 0
-282 -292 305 0
-282 -294 306 0
-282 -296 307 0
-284 -292 306 0
-284 -294 307 0
-284 -296 308 0
-298 309 0
-303 309 0
-298 -303 310 0
-299 311 0
-304 311 0
-299 -304 312 0
-300 313 0
-305 313 0
-300 -305 314 0
-301 315 0
-306 315 0
-301 -306 316 0
-302 317 0
-307 317 0
-302 -307 318 0
-13 319 0
-25 319 0
-13 -25 320 0
-11 319 0
-13 -11 320 0
-25 -11 320 0
-13 -25 -11 321 0
-10 322 0
-9 322 0
-10 -9 323 0
-8 322 0
-10 -8 323 0
-9 -8 323 0
-10 -9 -8 324 0
-319 325 0
-320 326 0
-321 327 0
-322 325 0
-323 326 0
-324 327 0
-319 -322 326 0
-319 -323 327 0
-319 -324 328 0
-320 -322 327 0
-320 -323 328 0
-320 -324 329 0
-321 -322 328 0
-321 -323 329 0
-321 -324 330 0
-7 331 0
-6 331 0
-7 -6 332 0
-5 331 0
-7 -5 332 0
-6 -5 332 0
-7 -6 -5 333 0
-4 334 0
-3 334 0
-4 -3 335 0
-2 334 0
-4 -2 335 0
-3 -2 335 0
-4 -3 -2 336 0
-331 337 0
-332 338 0
-333 339 0
-334 337 0
-335 338 0
-336 339 0
-331 -334 338 0
-331 -335 339 0
-331 -336 340 0
-332 -334 339 0
-332 -335 340 0
-332 -336 341 0
-333 -334 340 0
-333 -335 341 0
-333 -336 342 0
-325 343 0
-327 344 0
-329 345 0
-337 343 0
-339 344 0
-341 345 0
-325 -337 344 0
-325 -339 345 0
-325 -341 346 0
-327 -337 345 0
-327 -339 346 0
-327 -341 347 0
-329 -337 346 0
-329 -339 347 0
-329 -341 348 0
-326 349 0
-328 350 0
-330 351 0
-338 349 0
-340 350 0
-342 351 0
-326 -338 350 0
-326 -340 351 0
-326 -342 352 0
-328 -338 351 0
-328 -340 352 0
-328 -342 353 0
-330 -338 352 0
-330 -340 353 0
-330 -342 354 0
-344 355 0
-349 355 0
-344 -349 356 0
-345 357 0
-350 357 0
-345 -350 358 0
-346 359 0
-351 359 0
-346 -351 360 0
-347 361 0
-352 361 0
-347 -352 362 0
-348 363 0
-353 363 0
-348 -353 364 0
-1 365 0
-37 365 0
-1 -37 366 0
-49 365 0
-1 -49 366 0
-37 -49 366 0
-1 -37 -49 367 0
-48 368 0
-47 368 0
-48 -47 369 0
-46 368 0
-48 -46 369 0
-47 -46 369 0
-48 -47 -46 370 0
-365 371 0
-366 372 0
-367 373 0
-368 371 0
-369 372 0
-370 373 0
-365 -368 372 0
-365 -369 373 0
-365 -370 374 0
-366 -368 373 0
-366 -369 374 0
-366 -370 375 0
-367 -368 374 0
-367 -369 375 0
-367 -370 376 0
-45 377 0
-44 377 0
-45 -44 378 0
-43 377 0
-45 -43 378 0
-44 -43 378 0
-45 -44 -43 379 0
-42 380 0
-41 380 0
-42 -41 381 0
-40 380 0
-42 -40 381 0
-41 -40 381 0
-42 -41 -40 382 0
-377 383 0
-378 384 0
-379 385 0
-380 383 0
-381 384 0
-382 385 0
-377 -380 384 0
-377 -381 385 0
-377 -382 386 0
-378 -380 385 0
-378 -381 386 0
-378 -382 387 0
-379 -380 386 0
-379 -381 387 0
-379 -382 388 0
-371 389 0
-373 390 0
-375 391 0
-383 389 0
-385 390 0
-387 391 0
-371 -383 390 0
-371 -385 391 0
-371 -387 392 0
-373 -383 391 0
-373 -385 392 0
-373 -387 393 0
-375 -383 392 0
-375 -385 393 0
-375 -387 394 0
-372 395 0
-374 396 0
-376 397 0
-384 395 0
-386 396 0
-388 397 0
-372 -384 396 0
-372 -386 397 0
-372 -388 398 0
-374 -384 397 0
-374 -386 398 0
-374 -388 399 0
-376 -384 398 0
-376 -386 399 0
-376 -388 400 0
-390 401 0
-395 401 0
-390 -395 402 0
-391 403 0
-396 403 0
-391 -396 404 0
-392 405 0
-397 405 0
-392 -397 406 0
-393 407 0
-398 407 0
-393 -398 408 0
-394 409 0
-399 409 0
-394 -399 410 0
-39 411 0
-38 411 0
-39 -38 412 0
-50 411 0
-39 -50 412 0
-38 -50 412 0
-39 -38 -50 413 0
-36 414 0
-35 414 0
-36 -35 415 0
-34 414 0
-36 -34 415 0
-35 -34 415 0
-36 -35 -34 416 0
-411 417 0
-412 418 0
-413 419 0
-414 417 0
-415 418 0
-416 419 0
-411 -414 418 0
-411 -415 419 0
-411 -416 420 0
-412 -414 419 0
-412 -415 420 0
-412 -416 421 0
-413 -414 420 0
-413 -415 421 0
-413 -416 422 0
-33 423 0
-32 423 0
-33 -32 424 0
-31 423 0
-33 -31 424 0
-32 -31 424 0
-33 -32 -31 425 0
-30 426 0
-29 426 0
-30 -29 427 0
-28 428 0
-27 428 0
-28 -27 429 0
-26 428 0
-28 -26 429 0
-27 -26 429 0
-28 -27 -26 430 0
-426 431 0
-427 432 0
-428 431 0
-429 432 0
-430 433 0
-426 -428 432 0
-426 -429 433 0
-426 -430 434 0
-427 -428 433 0
-427 -429 434 0
-427 -430 435 0
-423 436 0
-424 437 0
-425 438 0
-431 436 0
-432 437 0
-433 438 0
-434 439 0
-435 440 0
-423 -431 437 0
-423 -432 438 0
-423 -433 439 0
-423 -434 440 0
-423 -435 441 0
-424 -431 438 0
-424 -432 439 0
-424 -433 440 0
-424 -434 441 0
-424 -435 442 0
-425 -431 439 0
-425 -432 440 0
-425 -433 441 0
-425 -434 442 0
-425 -435 443 0
-417 444 0
-419 445 0
-421 446 0
-436 444 0
-438 445 0
-440 446 0
-442 447 0
-417 -436 445 0
-417 -438 446 0
-417 -440 447 0
-417 -442 448 0
-419 -436 446 0
-419 -438 447 0
-419 -440 448 0
-419 -442 449 0
-421 -436 447 0
-421 -438 448 0
-421 -440 449 0
-421 -442 450 0
-418 451 0
-420 452 0
-422 453 0
-437 451 0
-439 452 0
-441 453 0
-443 454 0
-418 -437 452 0
-418 -439 453 0
-418 -441 454 0
-418 -443 455 0
-420 -437 453 0
-420 -439 454 0
-420 -441 455 0
-420 -443 456 0
-422 -437 454 0
-422 -439 455 0
-422 -441 456 0
-422 -443 457 0
-445 458 0
-451 458 0
-445 -451 459 0
-446 460 0
-452 460 0
-446 -452 461 0
-447 462 0
-453 462 0
-447 -453 463 0
-448 464 0
-454 464 0
-448 -454 465 0
-449 466 0
-455 466 0
-449 -455 467 0
-450 468 0
-456 468 0
-450 -456 469 0
-389 470 0
-404 471 0
-408 472 0
-444 470 0
-461 471 0
-465 472 0
-469 473 0
-389 -444 471 0
-389 -461 472 0
-389 -465 473 0
-389 -469 474 0
-404 -444 472 0
-404 -461 473 0
-404 -465 474 0
-404 -469 475 0
-408 -444 473 0
-408 -461 474 0
-408 -465 475 0
-402 476 0
-406 477 0
-410 478 0
-459 476 0
-463 477 0
-467 478 0
-402 -459 477 0
-402 -463 478 0
-402 -467 479 0
-406 -459 478 0
-406 -463 479 0
-406 -467 480 0
-410 -459 479 0
-410 -463 480 0
-471 481 0
-476 481 0
-471 -476 482 0
-472 483 0
-477 483 0
-472 -477 484 0
-473 485 0
-478 485 0
-473 -478 486 0
-474 487 0
-479 487 0
-474 -479 488 0
-475 489 0
-480 489 0
-475 -480 490 0
-401 491 0
-405 492 0
-409 493 0
-458 491 0
-462 492 0
-466 493 0
-457 494 0
-401 -458 492 0
-401 -462 493 0
-401 -466 494 0
-401 -457 495 0
-405 -458 493 0
-405 -462 494 0
-405 -466 495 0
-405 -457 496 0
-409 -458 494 0
-409 -462 495 0
-409 -466 496 0
-403 497 0
-407 498 0
-400 499 0
-460 497 0
-464 498 0
-468 499 0
-403 -460 498 0
-403 -464 499 0
-403 -468 500 0
-407 -460 499 0
-407 -464 500 0
-407 -468 501 0
-400 -460 500 0
-400 -464 501 0
-492 502 0
-497 502 0
-492 -497 503 0
-493 504 0
-498 504 0
-493 -498 505 0
-494 506 0
-499 506 0
-494 -499 507 0
-495 508 0
-500 508 0
-495 -500 509 0
-496 510 0
-501 510 0
-481 511 0
-491 511 0
-481 -491 512 0
-482 513 0
-502 513 0
-482 -502 514 0
-483 515 0
-503 515 0
-483 -503 516 0
-484 517 0
-504 517 0
-484 -504 518 0
-485 519 0
-505 519 0
-485 -505 520 0
-486 521 0
-506 521 0
-486 -506 522 0
-487 523 0
-507 523 0
-487 -507 524 0
-488 525 0
-508 525 0
-488 -508 526 0
-489 527 0
-509 527 0
-489 -509 528 0
-490 529 0
-510 529 0
-490 -510 530 0
-343 531 0
-358 532 0
-362 533 0
-470 531 0
-514 532 0
-518 533 0
-522 534 0
-526 535 0
-530 536 0
-343 -470 532 0
-343 -514 533 0
-343 -518 534 0
-343 -522 535 0
-343 -526 536 0
-358 -470 533 0
-358 -514 534 0
-358 -518 535 0
-358 -522 536 0
-362 -470 534 0
-362 -514 535 0
-362 -518 536 0
-356 537 0
-360 538 0
-364 539 0
-512 537 0
-516 538 0
-520 539 0
-524 540 0
-528 541 0
-356 -512 538 0
-356 -516 539 0
-356 -520 540 0
-356 -524 541 0
-360 -512 539 0
-360 -516 540 0
-360 -520 541 0
-364 -512 540 0
-364 -516 541 0
-532 542 0
-537 542 0
-532 -537 543 0
-533 544 0
-538 544 0
-533 -538 545 0
-534 546 0
-539 546 0
-534 -539 547 0
-535 548 0
-540 548 0
-535 -540 549 0
-536 550 0
-541 550 0
-536 -541 551 0
-355 552 0
-359 553 0
-363 554 0
-511 552 0
-515 553 0
-519 554 0
-523 555 0
-527 556 0
-355 -511 553 0
-355 -515 554 0
-355 -519 555 0
-355 -523 556 0
-355 -527 557 0
-359 -511 554 0
-359 -515 555 0
-359 -519 556 0
-359 -523 557 0
-363 -511 555 0
-363 -515 556 0
-363 -519 557 0
-357 558 0
-361 559 0
-354 560 0
-513 558 0
-517 559 0
-521 560 0
-525 561 0
-529 562 0
-357 -513 559 0
-357 -517 560 0
-357 -521 561 0
-357 -525 562 0
-361 -513 560 0
-361 -517 561 0
-361 -521 562 0
-354 -513 561 0
-354 -517 562 0
-553 563 0
-558 563 0
-553 -558 564 0
-554 565 0
-559 565 0
-554 -559 566 0
-555 567 0
-560 567 0
-555 -560 568 0
-556 569 0
-561 569 0
-556 -561 570 0
-557 571 0
-562 571 0
-542 572 0
-552 572 0
-542 -552 573 0
-543 574 0
-563 574 0
-543 -563 575 0
-544 576 0
-564 576 0
-544 -564 577 0
-545 578 0
-565 578 0
-545 -565 579 0
-546 580 0
-566 580 0
-546 -566 581 0
-547 582 0
-567 582 0
-547 -567 583 0
-548 584 0
-568 584 0
-548 -568 585 0
-549 586 0
-569 586 0
-549 -569 587 0
-550 588 0
-570 588 0
-550 -570 589 0
-551 590 0
-571 590 0
-551 -571 591 0
-297 592 0
-312 593 0
-316 594 0
-531 592 0
-575 593 0
-579 594 0
-583 595 0
-587 596 0
-591 597 0
-297 -531 593 0
-297 -575 594 0
-297 -579 595 0
-297 -583 596 0
-297 -587 597 0
-312 -531 594 0
-312 -575 595 0
-312 -579 596 0
-312 -583 597 0
-316 -531 595 0
-316 -575 596 0
-316 -579 597 0
-310 598 0
-314 599 0
-318 600 0
-573 598 0
-577 599 0
-581 600 0
-585 601 0
-589 602 0
-310 -573 599 0
-310 -577 600 0
-310 -581 601 0
-310 -585 602 0
-314 -573 600 0
-314 -577 601 0
-314 -581 602 0
-318 -573 601 0
-318 -577 602 0
-593 603 0
-598 603 0
-593 -598 604 0
-594 605 0
-599 605 0
-594 -599 606 0
-595 607 0
-600 607 0
-595 -600 608 0
-596 609 0
-601 609 0
-596 -601 610 0
-597 611 0
-602 611 0
-597 -602 612 0
-309 613 0
-313 614 0
-317 615 0
-572 613 0
-576 614 0
-580 615 0
-584 616 0
-588 617 0
-309 -572 614 0
-309 -576 615 0
-309 -580 616 0
-309 -584 617 0
-309 -588 618 0
-313 -572 615 0
-313 -576 616 0
-313 -580 617 0
-313 -584 618 0
-317 -572 616 0
-317 -576 617 0
-317 -580 618 0
-311 619 0
-315 620 0
-308 621 0
-574 619 0
-578 620 0
-582 621 0
-586 622 0
-590 623 0
-311 -574 620 0
-311 -578 621 0
-311 -582 622 0
-311 -586 623 0
-315 -574 621 0
-315 -578 622 0
-315 -582 623 0
-308 -574 622 0
-308 -578 623 0
-614 624 0
-619 624 0
-614 -619 625 0
-615 626 0
-620 626 0
-615 -620 627 0
-616 628 0
-621 628 0
-616 -621 629 0
-617 630 0
-622 630 0
-617 -622 631 0
-618 632 0
-623 632 0
-603 633 0
-613 633 0
-603 -613 634 0
-604 635 0
-624 635 0
-604 -624 636 0
-605 637 0
-625 637 0
-605 -625 638 0
-606 639 0
-626 639 0
-606 -626 640 0
-607 641 0
-627 641 0
-607 -627 642 0
-608 643 0
-628 643 0
-608 -628 644 0
-609 645 0
-629 645 0
-609 -629 646 0
-610 647 0
-630 647 0
-610 -630 648 0
-611 649 0
-631 649 0
-611 -631 650 0
-612 651 0
-632 651 0
-612 -632 652 0
-652 0
